
Gurobi 11.0.3 (mac64[x86]) logging started Wed Apr  9 11:41:43 2025

Set parameter LogFile to value "Results/Conservative_experiment/sanity_check_v20.log"
Set parameter TimeLimit to value 84600
Set parameter Method to value 2
Set parameter Crossover to value 0
Set parameter BarConvTol to value 1e-10
Gurobi Optimizer version 11.0.3 build v11.0.3rc0 (mac64[x86] - Darwin 23.4.0 23E214)

CPU model: Intel(R) Core(TM) i7-1060NG7 CPU @ 1.20GHz
Thread count: 4 physical cores, 8 logical processors, using up to 8 threads

Optimize a model with 3282976 rows, 3705248 columns and 14142128 nonzeros
Model fingerprint: 0xe4a85ae9
Coefficient statistics:
  Matrix range     [2e-01, 3e+00]
  Objective range  [6e-05, 5e+00]
  Bounds range     [0e+00, 0e+00]
  RHS range        [1e-02, 1e+03]
Presolve removed 1939376 rows and 2660000 columns (presolve time = 5s) ...
Presolve removed 3081203 rows and 3362191 columns
Presolve time: 10.34s
Presolved: 201773 rows, 343057 columns, 1430291 nonzeros
Ordering time: 0.00s

Barrier statistics:
 AA' NZ     : 5.413e+03
 Factor NZ  : 1.484e+04 (roughly 1 MB of memory)
 Factor Ops : 5.221e+05 (less than 1 second per iteration)
 Threads    : 1

                  Objective                Residual
Iter       Primal          Dual         Primal    Dual     Compl     Time
   0  -3.19683037e+05  4.11903092e+05  7.98e+02 7.34e+01  1.49e+04    11s
   1  -1.13219366e+05  8.59640926e+05  1.49e+02 1.27e+01  2.95e+03    11s
   2  -2.01521437e+04  3.30340307e+05  2.80e+01 7.53e-13  5.56e+02    11s
   3   6.77379954e+03  1.31919306e+05  5.04e+00 1.54e-12  1.42e+02    11s
   4   1.75615707e+04  3.65409759e+04  1.80e-02 8.48e-12  1.38e+01    11s
   5   2.04297637e+04  2.33188882e+04  1.38e-03 1.58e-12  2.09e+00    11s
   6   2.13322901e+04  2.19966255e+04  1.19e-04 3.27e-13  4.79e-01    11s
   7   2.15204402e+04  2.17753763e+04  1.19e-05 1.56e-13  1.84e-01    11s
   8   2.15196214e+04  2.16599765e+04  8.15e-06 7.11e-14  1.01e-01    11s
   9   2.15310435e+04  2.15649553e+04  5.09e-06 4.26e-14  2.44e-02    11s
  10   2.15479110e+04  2.15517100e+04  3.85e-07 3.55e-14  2.74e-03    11s
  11   2.15493947e+04  2.15505085e+04  1.05e-09 4.26e-14  8.02e-04    11s
  12   2.15494756e+04  2.15496686e+04  1.41e-11 3.55e-14  1.39e-04    11s
  13   2.15495208e+04  2.15495574e+04  1.22e-10 4.26e-14  2.63e-05    11s
  14   2.15495269e+04  2.15495272e+04  2.51e-11 5.68e-14  2.19e-07    11s
  15   2.15495270e+04  2.15495270e+04  1.56e-13 5.68e-14  2.19e-10    11s
  16   2.15495270e+04  2.15495270e+04  3.84e-13 5.68e-14  2.19e-13    11s

Barrier solved model in 16 iterations and 10.63 seconds (5.95 work units)
Optimal objective 2.15495270e+04


Gurobi 11.0.3 (mac64[x86]) logging started Wed Apr  9 11:46:24 2025

Set parameter LogFile to value "Results/Conservative_experiment/sanity_check_v20.log"
Set parameter TimeLimit to value 84600
Set parameter Method to value 2
Set parameter Crossover to value 0
Set parameter BarConvTol to value 1e-10
Gurobi Optimizer version 11.0.3 build v11.0.3rc0 (mac64[x86] - Darwin 23.4.0 23E214)

CPU model: Intel(R) Core(TM) i7-1060NG7 CPU @ 1.20GHz
Thread count: 4 physical cores, 8 logical processors, using up to 8 threads

Optimize a model with 3282720 rows, 3705248 columns and 13900464 nonzeros
Model fingerprint: 0xc625a8a9
Coefficient statistics:
  Matrix range     [2e-01, 3e+00]
  Objective range  [6e-05, 5e+00]
  Bounds range     [0e+00, 0e+00]
  RHS range        [1e-02, 1e+03]
Presolve removed 2058224 rows and 2740000 columns (presolve time = 5s) ...
Presolve removed 2935783 rows and 3204221 columns
Presolve time: 9.85s
Presolved: 346937 rows, 501027 columns, 2093909 nonzeros
Ordering time: 0.03s

Barrier statistics:
 AA' NZ     : 1.866e+04
 Factor NZ  : 9.785e+04 (roughly 4 MB of memory)
 Factor Ops : 8.225e+06 (less than 1 second per iteration)
 Threads    : 4

                  Objective                Residual
Iter       Primal          Dual         Primal    Dual     Compl     Time
   0   2.27290413e+06  1.52627529e+06  7.12e+02 6.89e+01  1.33e+04    10s
   1   4.75145590e+05  1.29111387e+06  1.69e+02 3.72e+01  3.11e+03    10s
   2   1.40159744e+04  8.42881699e+05  3.50e+01 6.00e+00  6.43e+02    10s
   3  -1.11931073e+04  2.99011297e+05  1.22e+01 1.26e+00  1.96e+02    10s
   4  -5.89404970e+03  9.84722202e+04  4.61e+00 1.71e-01  6.02e+01    10s
   5   1.30781987e+04  5.70343921e+04  7.36e-01 4.12e-02  1.39e+01    10s
   6   1.92779004e+04  3.50803355e+04  8.98e-02 1.22e-02  3.43e+00    10s
   7   2.09728437e+04  2.41748345e+04  5.84e-03 1.20e-03  5.89e-01    10s
   8   2.13611938e+04  2.27755131e+04  1.97e-03 2.63e-04  2.48e-01    10s
   9   2.15408779e+04  2.22803481e+04  8.86e-04 3.98e-13  1.25e-01    10s
  10   2.16593609e+04  2.20238017e+04  3.78e-04 1.71e-13  5.90e-02    10s
  11   2.17534794e+04  2.19240441e+04  1.05e-04 9.95e-14  2.63e-02    10s
  12   2.17941006e+04  2.18758919e+04  3.30e-05 5.68e-14  1.23e-02    10s
  13   2.18123339e+04  2.18425567e+04  8.42e-06 6.39e-14  4.47e-03    10s
  14   2.18196097e+04  2.18283473e+04  1.53e-06 4.26e-14  1.28e-03    10s
  15   2.18213856e+04  2.18238612e+04  3.62e-07 5.14e-14  3.62e-04    10s
  16   2.18218670e+04  2.18226061e+04  6.35e-08 6.06e-14  1.07e-04    10s
  17   2.18219738e+04  2.18221974e+04  1.24e-08 4.26e-14  3.25e-05    10s
  18   2.18220134e+04  2.18220918e+04  1.42e-09 8.00e-14  1.13e-05    10s
  19   2.18220238e+04  2.18220297e+04  4.23e-10 4.30e-14  8.71e-07    10s
  20   2.18220268e+04  2.18220272e+04  9.01e-10 4.26e-14  5.73e-08    10s
  21   2.18220270e+04  2.18220270e+04  3.07e-10 3.62e-12  2.27e-11    10s

Barrier solved model in 21 iterations and 10.30 seconds (5.83 work units)
Optimal objective 2.18220270e+04


Gurobi 11.0.3 (mac64[x86]) logging started Wed Apr  9 11:52:00 2025

Set parameter LogFile to value "Results/Conservative_experiment/sanity_check_v20.log"
Set parameter TimeLimit to value 84600
Set parameter Method to value 2
Set parameter Crossover to value 0
Set parameter BarConvTol to value 1e-10
Gurobi Optimizer version 11.0.3 build v11.0.3rc0 (mac64[x86] - Darwin 23.4.0 23E214)

CPU model: Intel(R) Core(TM) i7-1060NG7 CPU @ 1.20GHz
Thread count: 4 physical cores, 8 logical processors, using up to 8 threads

Optimize a model with 3282976 rows, 3705248 columns and 14414000 nonzeros
Model fingerprint: 0xf5d28328
Coefficient statistics:
  Matrix range     [2e-01, 1e+00]
  Objective range  [6e-05, 5e+00]
  Bounds range     [0e+00, 0e+00]
  RHS range        [1e-02, 1e+03]
Presolve removed 1933088 rows and 2656144 columns (presolve time = 5s) ...
Presolve removed 2935438 rows and 3200422 columns (presolve time = 10s) ...
Presolve removed 2945481 rows and 3200446 columns
Presolve time: 11.27s
Presolved: 337495 rows, 504802 columns, 2318449 nonzeros
Ordering time: 0.03s

Barrier statistics:
 AA' NZ     : 1.124e+05
 Factor NZ  : 3.131e+05 (roughly 9 MB of memory)
 Factor Ops : 3.024e+07 (less than 1 second per iteration)
 Threads    : 4

                  Objective                Residual
Iter       Primal          Dual         Primal    Dual     Compl     Time
   0   2.19766913e+06  3.22828865e+06  6.84e+02 3.27e+01  1.08e+04    12s
   1   9.92262658e+05  2.81129157e+06  3.18e+02 5.45e+01  4.44e+03    12s
   2   1.84679792e+04  2.40427139e+06  5.66e+01 9.71e+00  8.94e+02    12s
   3  -4.59082643e+04  7.68266987e+05  1.80e+01 1.50e+00  2.08e+02    12s
   4  -3.69353392e+04  4.33652624e+05  1.03e+01 7.72e-01  1.15e+02    12s
   5  -2.71151812e+04  2.57742343e+05  6.22e+00 3.99e-01  6.64e+01    12s
   6  -1.21162597e+04  2.53686224e+05  2.41e+00 3.92e-01  4.86e+01    12s
   7  -1.45028604e+02  1.04575327e+05  8.69e-01 1.01e-01  1.61e+01    12s
   8   1.43130897e+04  5.32337306e+04  1.28e-01 2.88e-02  4.56e+00    12s
   9   1.83680571e+04  3.53848602e+04  3.93e-02 1.04e-02  1.79e+00    12s
  10   2.03101283e+04  2.60774496e+04  1.16e-02 2.69e-03  5.56e-01    12s
  11   2.09695114e+04  2.39700661e+04  4.98e-03 1.26e-03  2.80e-01    12s
  12   2.10712587e+04  2.27131971e+04  4.14e-03 4.60e-04  1.48e-01    12s
  13   2.13301465e+04  2.22541916e+04  2.45e-03 1.53e-04  8.07e-02    12s
  14   2.14171483e+04  2.20256672e+04  3.06e-03 7.04e-06  5.13e-02    12s
  15   2.15205381e+04  2.19525042e+04  1.37e-03 5.68e-14  3.55e-02    12s
  16   2.16689894e+04  2.18842493e+04  6.27e-04 8.53e-14  1.72e-02    12s
  17   2.17637402e+04  2.18578468e+04  2.17e-04 5.68e-14  7.37e-03    12s
  18   2.17830181e+04  2.18383499e+04  1.41e-04 3.77e-14  4.30e-03    12s
  19   2.18067613e+04  2.18295393e+04  5.30e-05 5.33e-14  1.75e-03    12s
  20   2.18162876e+04  2.18247839e+04  1.89e-05 4.26e-14  6.51e-04    12s
  21   2.18210319e+04  2.18225346e+04  2.47e-06 5.68e-14  1.14e-04    12s
  22   2.18217861e+04  2.18221587e+04  5.00e-07 7.33e-14  2.82e-05    12s
  23   2.18219257e+04  2.18221111e+04  1.87e-07 5.10e-14  1.40e-05    12s
  24   2.18220012e+04  2.18220471e+04  3.56e-08 1.14e-13  3.45e-06    12s
  25   2.18220206e+04  2.18220319e+04  7.73e-09 5.35e-14  8.51e-07    12s
  26   2.18220270e+04  2.18220271e+04  2.27e-10 1.42e-13  3.27e-09    12s
  27   2.18220270e+04  2.18220270e+04  9.40e-11 6.75e-14  6.11e-12    12s

Barrier solved model in 27 iterations and 12.03 seconds (6.47 work units)
Optimal objective 2.18220270e+04

